<instance format="XCSP3" type="CSP">
  <variables>
    <var id="x"> 0..10 </var>
    <var id="y"> 0..10 </var>
    <var id="z"> 1..5 </var>
    <var id="b1"> 0 1 </var>
    <var id="b2"> 0 1 </var>
  </variables>   
  <constraints>
    <intension id="c1" reifiedBy="b1"> le(x,4) </intension>
    <element id="c2">
       <list> 2 5 3 1 4 </list>
       <index> x </index>
       <value> z </value>
    </element>
    <intension id="c3" reifiedBy="b2"> ge(mul(z,x),6) </intension>
    <intension id="c4"> imp(b1,b2) </intension>
  </constraints>
</instance>
